
  12    4
  10   10   10   10

   0   0   0   0   0   4 2 3 7 9 
   2  10  10  10  10   3 8 6 4 
   9  10  10  10  10   2 8 4 
   9  10  10  10  10   1 5 
   4  10  10  10  10   2 11 10 
  10  10  10  10  10   2 11 10 
   7  10  10  10  10   2 11 10 
   9  10  10  10  10   1 10 
   8  10  10  10  10   1 10 
  10  10  10  10  10   1 12
   9  10  10  10  10   1 12
   0   0   0   0   0   0 
